p tw 48 96
19 30
10 30
21 30
24 30
13 19
19 20
19 35
13 43
13 25
13 38
43 46
18 43
27 43
9 46
23 46
22 46
9 12
4 9
9 42
2 12
12 47
12 41
2 28
2 11
2 6
28 40
16 28
28 34
37 40
5 40
31 40
10 37
32 37
29 37
10 15
10 39
20 21
15 21
17 21
20 25
20 33
18 25
3 25
18 23
14 18
4 23
7 23
4 47
4 36
11 47
44 47
11 16
1 11
5 16
16 45
5 32
5 26
15 32
32 48
8 15
17 33
8 17
17 24
3 33
33 35
3 14
3 38
7 14
14 27
7 36
7 22
36 44
36 42
1 44
41 44
1 45
1 6
26 45
34 45
26 48
26 31
8 48
29 48
8 39
24 35
24 39
35 38
27 38
22 27
22 42
41 42
6 41
6 34
31 34
29 31
29 39
